data_p1 = {0, 1};
data_p1Set = {0, 1};
data_p2 = 0..100000;
data_p2Set = {0, 1};
data_p3 = -1000..1000;
data_p3Set = {0, 1};
data_p4 = {4, 5, 6, 7, 8};
data_p4Set = {0, 1};
data_p5 = -1000..1000;
data_p5Set = {0, 1};
data_p6 = {0, 1};
data_p6Set = {0, 1};
data_p7 = 0..100000;
data_p7Set = {0, 1};
data_p8 = -1000..1000;
data_p8Set = {0, 1};
data_p9 = {4, 5, 6, 7, 8};
data_p9Set = {0, 1};
data_p10 = {4, 5, 6, 7, 8};
data_p10Set = {0, 1};
